instances/knapsack/discrete/knapsack_60_19.kp
64813
60
232

3 0.3 80
64 6.4 92
74 7.4 82
3 0.3 46
24 2.4 91
9 0.9 91
13 1.3 67
35 3.5 1
21 2.1 4
90 9.0 48
39 3.9 37
35 3.5 41
76 7.6 57
4 0.4 76
20 2.0 69
12 1.2 30
5 0.5 36
48 4.8 92
41 4.1 8
34 3.4 19
73 7.3 19
87 8.7 49
88 8.8 58
18 1.8 94
12 1.2 11
96 9.6 20
26 2.6 2
3 0.3 45
81 8.1 72
47 4.7 34
25 2.5 35
3 0.3 34
91 9.1 94
57 5.7 21
20 2.0 25
77 7.7 67
12 1.2 3
56 5.6 89
48 4.8 88
2 0.2 73
23 2.3 30
33 3.3 83
2 0.2 55
73 7.3 57
79 7.9 24
30 3.0 53
49 4.9 46
85 8.5 34
31 3.1 42
8 0.8 11
30 3.0 49
40 4.0 96
53 5.3 29
44 4.4 19
20 2.0 82
95 9.5 72
53 5.3 40
10 1.0 46
20 2.0 46
86 8.6 45

23816
319

[4.39 0.19 4.92 1.9 0.64 4.55 4.65 4.19 3.87 2.79 1.3 3.64 3.36 2.95 4.99 0.03 4.52 2.02 0.8 0.19 1.08 3.2 0.5 4.16 4.58 4.19 2.98 1.96 2.69 1.04 0.88 0.79 1.66 5.27 2.74 4.87 3.19 3.8 3.87 5.1 1.48 0.57 3.84 1.19 3.96 2.94 2.75 3.17 0.59 1.6 2.34 1.41 4.91 2.91 2.32 3.91 2.57 4.77 2.58 0.92]

[59 59 61 22 99 33 16 79 8 13 35 98 19 7 12 20 48 95 96 69 20 95 63 86 24 15 37 83 45 70 85 79 43 60 83 64 39 100 39 82 82 49 65 77 98 42 53 17 42 47 86 71 20 79 44 79 76 58 83 25]
