instances/knapsack/discrete/knapsack_60_19.lp
\ Model knapsack_60_19
\ LP format - for model browsing. Use MPS format to capture full model detail.
\ Signature: 0x44a844bc7146bef8
Minimize
  - 5 x[0] - 42 x[1] - 23 x[2] - 87 x[3] - 41 x[4] - 32 x[5] - 29 x[6]
   - 7 x[7] - 22 x[8] - 98 x[9] - 94 x[10] - 38 x[11] - 14 x[12] - 49 x[13]
   - 38 x[14] - 71 x[15] - x[16] - 81 x[17] - 22 x[18] - x[19] - 41 x[20]
   - 86 x[21] - 11 x[22] - 3 x[23] - 64 x[24] - 6 x[25] - 95 x[26]
   - 75 x[27] - 77 x[28] - 88 x[29] - 88 x[30] - 83 x[31] - 19 x[32]
   - 38 x[33] - 59 x[34] - 88 x[35] - 48 x[36] - 22 x[37] - 30 x[38]
   - 59 x[39] - 95 x[40] - 77 x[41] - 41 x[42] - 18 x[43] - 66 x[44]
   - 74 x[45] - 92 x[46] - 84 x[47] - 4 x[48] - 41 x[49] - 2 x[50]
   - 18 x[51] - 18 x[52] - 60 x[53] - 55 x[54] - 21 x[55] - 30 x[56]
   - 43 x[57] - 15 x[58] - 38 x[59]
Subject To
 primal_upper: 75 x[0] + 75 x[1] + 45 x[2] + 54 x[3] + 87 x[4] + 61 x[5]
   + 16 x[6] + 39 x[7] + 80 x[8] + 61 x[9] + 3 x[10] + 82 x[11] + 43 x[12]
   + 67 x[13] + 44 x[14] + 52 x[15] + 48 x[16] + 83 x[17] + 48 x[18]
   + 69 x[19] + 4 x[20] + 83 x[21] + 55 x[22] + 54 x[23] + 32 x[24]
   + 39 x[25] + 53 x[26] + 47 x[27] + 53 x[28] + 34 x[29] + x[30]
   + 15 x[31] + 47 x[32] + 12 x[33] + 75 x[34] + 64 x[35] + 87 x[36]
   + 84 x[37] + 91 x[38] + 90 x[39] + 50 x[40] + 77 x[41] + 33 x[42]
   + 41 x[43] + 90 x[44] + 58 x[45] + 5 x[46] + 45 x[47] + 46 x[48]
   + 23 x[49] + 90 x[50] + 39 x[51] + 64 x[52] + 83 x[53] + 84 x[54]
   + 43 x[55] + 80 x[56] + 70 x[57] + 27 x[58] + 9 x[59] + 7.5 r[0]
   + 7.5 r[1] + 4.5 r[2] + 5.4 r[3] + 8.7 r[4] + 6.1 r[5] + 1.6 r[6]
   + 3.9 r[7] + 8 r[8] + 6.1 r[9] + 0.3 r[10] + 8.2 r[11] + 4.3 r[12]
   + 6.7 r[13] + 4.4 r[14] + 5.2 r[15] + 4.8 r[16] + 8.3 r[17] + 4.8 r[18]
   + 6.9 r[19] + 0.4 r[20] + 8.3 r[21] + 5.5 r[22] + 5.4 r[23] + 3.2 r[24]
   + 3.9 r[25] + 5.3 r[26] + 4.7 r[27] + 5.3 r[28] + 3.4 r[29] + 0.1 r[30]
   + 1.5 r[31] + 4.7 r[32] + 1.2 r[33] + 7.5 r[34] + 6.4 r[35] + 8.7 r[36]
   + 8.4 r[37] + 9.1 r[38] + 9 r[39] + 5 r[40] + 7.7 r[41] + 3.3 r[42]
   + 4.1 r[43] + 9 r[44] + 5.8 r[45] + 0.5 r[46] + 4.5 r[47] + 4.6 r[48]
   + 2.3 r[49] + 9 r[50] + 3.9 r[51] + 6.4 r[52] + 8.3 r[53] + 8.4 r[54]
   + 4.3 r[55] + 8 r[56] + 7 r[57] + 2.7 r[58] + 0.9 r[59] <= 305
 primal_lower: 3.846699559473557 x[0] + 4.1694570536406 x[1]
   + 3.971017931501007 x[2] + 4.871822280388676 x[3]
   + 1.59849521529223 x[4] + 2.913627335746649 x[5]
   + 0.1039830233742822 x[6] + 1.198475166345087 x[7]
   + 4.197478445046139 x[8] + 4.360131676260868 x[9]
   + 2.058808958548717 x[10] + 2.622943985180372 x[11]
   + 3.069679368338726 x[12] + 0.4769055724306236 x[13]
   + 3.907649591981874 x[14] + 3.898137512563416 x[15]
   + 2.303440778427868 x[16] + 1.811337535958081 x[17]
   + 3.270503930996496 x[18] + 2.11750394699769 x[19]
   + 3.724095591284278 x[20] + 3.131315566233089 x[21]
   + 4.64307929269198 x[22] + 1.503465892547689 x[23]
   + 2.151501006812235 x[24] + 0.2567091358765045 x[25]
   + 0.5177156131616971 x[26] + 2.384941710156344 x[27]
   + 2.617779553046359 x[28] + 1.034274571747789 x[29]
   + 0.6283203721406044 x[30] + 4.060774404450441 x[31]
   + 1.723198457467281 x[32] + 1.733165442226913 x[33]
   + 2.700096332373251 x[34] + 4.130702868047714 x[35]
   + 0.4722971214417692 x[36] + 4.703742911448507 x[37]
   + 3.419640045212188 x[38] + 1.440456931931268 x[39]
   + 0.6398253727146186 x[40] + 0.0938932430085295 x[41]
   + 2.181389281368884 x[42] + 3.271791868099425 x[43]
   + 3.442799418847154 x[44] + 3.873355844328817 x[45]
   + 2.902681505501402 x[46] + 2.259923905950454 x[47]
   + 2.840935774752892 x[48] + 4.600809046089727 x[49]
   + 1.044174413793881 x[50] + 4.580321380192898 x[51]
   + 0.8535811904685215 x[52] + 2.998299728175982 x[53]
   + 1.854934736922724 x[54] + 0.9018143123514964 x[55]
   + 1.76470803360417 x[56] + 4.742168346375273 x[57]
   + 2.047990588974358 x[58] + 3.315152937448001 x[59] + 5 u[0] + 14 u[1]
   + 96 u[2] + 77 u[3] + 66 u[4] + 59 u[5] + 75 u[6] + 61 u[7] + 39 u[8]
   + 100 u[9] + 45 u[10] + 41 u[11] + 22 u[12] + 38 u[13] + 82 u[14]
   + 54 u[15] + 79 u[16] + 14 u[17] + 3 u[18] + 100 u[19] + 87 u[20]
   + 5 u[21] + 74 u[22] + 40 u[23] + 26 u[24] + 86 u[25] + 40 u[26]
   + 85 u[27] + 7 u[28] + 77 u[29] + 83 u[30] + 61 u[31] + 9 u[32]
   + 3 u[33] + 50 u[34] + 55 u[35] + 22 u[36] + 70 u[37] + 54 u[38]
   + 40 u[39] + 45 u[40] + 59 u[41] + 16 u[42] + 27 u[43] + 9 u[44]
   + 36 u[45] + 87 u[46] + 79 u[47] + 73 u[48] + 78 u[49] + 4 u[50]
   + 90 u[51] + 83 u[52] + 98 u[53] + 2 u[54] + 97 u[55] + 11 u[56]
   + 84 u[57] + 46 u[58] + 20 u[59] <= 81305
 mccormick1[0]: - u[0] + r[0] <= 0
 mccormick1[1]: - u[1] + r[1] <= 0
 mccormick1[2]: - u[2] + r[2] <= 0
 mccormick1[3]: - u[3] + r[3] <= 0
 mccormick1[4]: - u[4] + r[4] <= 0
 mccormick1[5]: - u[5] + r[5] <= 0
 mccormick1[6]: - u[6] + r[6] <= 0
 mccormick1[7]: - u[7] + r[7] <= 0
 mccormick1[8]: - u[8] + r[8] <= 0
 mccormick1[9]: - u[9] + r[9] <= 0
 mccormick1[10]: - u[10] + r[10] <= 0
 mccormick1[11]: - u[11] + r[11] <= 0
 mccormick1[12]: - u[12] + r[12] <= 0
 mccormick1[13]: - u[13] + r[13] <= 0
 mccormick1[14]: - u[14] + r[14] <= 0
 mccormick1[15]: - u[15] + r[15] <= 0
 mccormick1[16]: - u[16] + r[16] <= 0
 mccormick1[17]: - u[17] + r[17] <= 0
 mccormick1[18]: - u[18] + r[18] <= 0
 mccormick1[19]: - u[19] + r[19] <= 0
 mccormick1[20]: - u[20] + r[20] <= 0
 mccormick1[21]: - u[21] + r[21] <= 0
 mccormick1[22]: - u[22] + r[22] <= 0
 mccormick1[23]: - u[23] + r[23] <= 0
 mccormick1[24]: - u[24] + r[24] <= 0
 mccormick1[25]: - u[25] + r[25] <= 0
 mccormick1[26]: - u[26] + r[26] <= 0
 mccormick1[27]: - u[27] + r[27] <= 0
 mccormick1[28]: - u[28] + r[28] <= 0
 mccormick1[29]: - u[29] + r[29] <= 0
 mccormick1[30]: - u[30] + r[30] <= 0
 mccormick1[31]: - u[31] + r[31] <= 0
 mccormick1[32]: - u[32] + r[32] <= 0
 mccormick1[33]: - u[33] + r[33] <= 0
 mccormick1[34]: - u[34] + r[34] <= 0
 mccormick1[35]: - u[35] + r[35] <= 0
 mccormick1[36]: - u[36] + r[36] <= 0
 mccormick1[37]: - u[37] + r[37] <= 0
 mccormick1[38]: - u[38] + r[38] <= 0
 mccormick1[39]: - u[39] + r[39] <= 0
 mccormick1[40]: - u[40] + r[40] <= 0
 mccormick1[41]: - u[41] + r[41] <= 0
 mccormick1[42]: - u[42] + r[42] <= 0
 mccormick1[43]: - u[43] + r[43] <= 0
 mccormick1[44]: - u[44] + r[44] <= 0
 mccormick1[45]: - u[45] + r[45] <= 0
 mccormick1[46]: - u[46] + r[46] <= 0
 mccormick1[47]: - u[47] + r[47] <= 0
 mccormick1[48]: - u[48] + r[48] <= 0
 mccormick1[49]: - u[49] + r[49] <= 0
 mccormick1[50]: - u[50] + r[50] <= 0
 mccormick1[51]: - u[51] + r[51] <= 0
 mccormick1[52]: - u[52] + r[52] <= 0
 mccormick1[53]: - u[53] + r[53] <= 0
 mccormick1[54]: - u[54] + r[54] <= 0
 mccormick1[55]: - u[55] + r[55] <= 0
 mccormick1[56]: - u[56] + r[56] <= 0
 mccormick1[57]: - u[57] + r[57] <= 0
 mccormick1[58]: - u[58] + r[58] <= 0
 mccormick1[59]: - u[59] + r[59] <= 0
 mccormick2[0]: - x[0] + r[0] <= 0
 mccormick2[1]: - x[1] + r[1] <= 0
 mccormick2[2]: - x[2] + r[2] <= 0
 mccormick2[3]: - x[3] + r[3] <= 0
 mccormick2[4]: - x[4] + r[4] <= 0
 mccormick2[5]: - x[5] + r[5] <= 0
 mccormick2[6]: - x[6] + r[6] <= 0
 mccormick2[7]: - x[7] + r[7] <= 0
 mccormick2[8]: - x[8] + r[8] <= 0
 mccormick2[9]: - x[9] + r[9] <= 0
 mccormick2[10]: - x[10] + r[10] <= 0
 mccormick2[11]: - x[11] + r[11] <= 0
 mccormick2[12]: - x[12] + r[12] <= 0
 mccormick2[13]: - x[13] + r[13] <= 0
 mccormick2[14]: - x[14] + r[14] <= 0
 mccormick2[15]: - x[15] + r[15] <= 0
 mccormick2[16]: - x[16] + r[16] <= 0
 mccormick2[17]: - x[17] + r[17] <= 0
 mccormick2[18]: - x[18] + r[18] <= 0
 mccormick2[19]: - x[19] + r[19] <= 0
 mccormick2[20]: - x[20] + r[20] <= 0
 mccormick2[21]: - x[21] + r[21] <= 0
 mccormick2[22]: - x[22] + r[22] <= 0
 mccormick2[23]: - x[23] + r[23] <= 0
 mccormick2[24]: - x[24] + r[24] <= 0
 mccormick2[25]: - x[25] + r[25] <= 0
 mccormick2[26]: - x[26] + r[26] <= 0
 mccormick2[27]: - x[27] + r[27] <= 0
 mccormick2[28]: - x[28] + r[28] <= 0
 mccormick2[29]: - x[29] + r[29] <= 0
 mccormick2[30]: - x[30] + r[30] <= 0
 mccormick2[31]: - x[31] + r[31] <= 0
 mccormick2[32]: - x[32] + r[32] <= 0
 mccormick2[33]: - x[33] + r[33] <= 0
 mccormick2[34]: - x[34] + r[34] <= 0
 mccormick2[35]: - x[35] + r[35] <= 0
 mccormick2[36]: - x[36] + r[36] <= 0
 mccormick2[37]: - x[37] + r[37] <= 0
 mccormick2[38]: - x[38] + r[38] <= 0
 mccormick2[39]: - x[39] + r[39] <= 0
 mccormick2[40]: - x[40] + r[40] <= 0
 mccormick2[41]: - x[41] + r[41] <= 0
 mccormick2[42]: - x[42] + r[42] <= 0
 mccormick2[43]: - x[43] + r[43] <= 0
 mccormick2[44]: - x[44] + r[44] <= 0
 mccormick2[45]: - x[45] + r[45] <= 0
 mccormick2[46]: - x[46] + r[46] <= 0
 mccormick2[47]: - x[47] + r[47] <= 0
 mccormick2[48]: - x[48] + r[48] <= 0
 mccormick2[49]: - x[49] + r[49] <= 0
 mccormick2[50]: - x[50] + r[50] <= 0
 mccormick2[51]: - x[51] + r[51] <= 0
 mccormick2[52]: - x[52] + r[52] <= 0
 mccormick2[53]: - x[53] + r[53] <= 0
 mccormick2[54]: - x[54] + r[54] <= 0
 mccormick2[55]: - x[55] + r[55] <= 0
 mccormick2[56]: - x[56] + r[56] <= 0
 mccormick2[57]: - x[57] + r[57] <= 0
 mccormick2[58]: - x[58] + r[58] <= 0
 mccormick2[59]: - x[59] + r[59] <= 0
 mccormick3[0]: x[0] + u[0] - r[0] <= 1
 mccormick3[1]: x[1] + u[1] - r[1] <= 1
 mccormick3[2]: x[2] + u[2] - r[2] <= 1
 mccormick3[3]: x[3] + u[3] - r[3] <= 1
 mccormick3[4]: x[4] + u[4] - r[4] <= 1
 mccormick3[5]: x[5] + u[5] - r[5] <= 1
 mccormick3[6]: x[6] + u[6] - r[6] <= 1
 mccormick3[7]: x[7] + u[7] - r[7] <= 1
 mccormick3[8]: x[8] + u[8] - r[8] <= 1
 mccormick3[9]: x[9] + u[9] - r[9] <= 1
 mccormick3[10]: x[10] + u[10] - r[10] <= 1
 mccormick3[11]: x[11] + u[11] - r[11] <= 1
 mccormick3[12]: x[12] + u[12] - r[12] <= 1
 mccormick3[13]: x[13] + u[13] - r[13] <= 1
 mccormick3[14]: x[14] + u[14] - r[14] <= 1
 mccormick3[15]: x[15] + u[15] - r[15] <= 1
 mccormick3[16]: x[16] + u[16] - r[16] <= 1
 mccormick3[17]: x[17] + u[17] - r[17] <= 1
 mccormick3[18]: x[18] + u[18] - r[18] <= 1
 mccormick3[19]: x[19] + u[19] - r[19] <= 1
 mccormick3[20]: x[20] + u[20] - r[20] <= 1
 mccormick3[21]: x[21] + u[21] - r[21] <= 1
 mccormick3[22]: x[22] + u[22] - r[22] <= 1
 mccormick3[23]: x[23] + u[23] - r[23] <= 1
 mccormick3[24]: x[24] + u[24] - r[24] <= 1
 mccormick3[25]: x[25] + u[25] - r[25] <= 1
 mccormick3[26]: x[26] + u[26] - r[26] <= 1
 mccormick3[27]: x[27] + u[27] - r[27] <= 1
 mccormick3[28]: x[28] + u[28] - r[28] <= 1
 mccormick3[29]: x[29] + u[29] - r[29] <= 1
 mccormick3[30]: x[30] + u[30] - r[30] <= 1
 mccormick3[31]: x[31] + u[31] - r[31] <= 1
 mccormick3[32]: x[32] + u[32] - r[32] <= 1
 mccormick3[33]: x[33] + u[33] - r[33] <= 1
 mccormick3[34]: x[34] + u[34] - r[34] <= 1
 mccormick3[35]: x[35] + u[35] - r[35] <= 1
 mccormick3[36]: x[36] + u[36] - r[36] <= 1
 mccormick3[37]: x[37] + u[37] - r[37] <= 1
 mccormick3[38]: x[38] + u[38] - r[38] <= 1
 mccormick3[39]: x[39] + u[39] - r[39] <= 1
 mccormick3[40]: x[40] + u[40] - r[40] <= 1
 mccormick3[41]: x[41] + u[41] - r[41] <= 1
 mccormick3[42]: x[42] + u[42] - r[42] <= 1
 mccormick3[43]: x[43] + u[43] - r[43] <= 1
 mccormick3[44]: x[44] + u[44] - r[44] <= 1
 mccormick3[45]: x[45] + u[45] - r[45] <= 1
 mccormick3[46]: x[46] + u[46] - r[46] <= 1
 mccormick3[47]: x[47] + u[47] - r[47] <= 1
 mccormick3[48]: x[48] + u[48] - r[48] <= 1
 mccormick3[49]: x[49] + u[49] - r[49] <= 1
 mccormick3[50]: x[50] + u[50] - r[50] <= 1
 mccormick3[51]: x[51] + u[51] - r[51] <= 1
 mccormick3[52]: x[52] + u[52] - r[52] <= 1
 mccormick3[53]: x[53] + u[53] - r[53] <= 1
 mccormick3[54]: x[54] + u[54] - r[54] <= 1
 mccormick3[55]: x[55] + u[55] - r[55] <= 1
 mccormick3[56]: x[56] + u[56] - r[56] <= 1
 mccormick3[57]: x[57] + u[57] - r[57] <= 1
 mccormick3[58]: x[58] + u[58] - r[58] <= 1
 mccormick3[59]: x[59] + u[59] - r[59] <= 1
Bounds
Binaries
 x[0] x[1] x[2] x[3] x[4] x[5] x[6] x[7] x[8] x[9] x[10] x[11] x[12] x[13]
 x[14] x[15] x[16] x[17] x[18] x[19] x[20] x[21] x[22] x[23] x[24] x[25]
 x[26] x[27] x[28] x[29] x[30] x[31] x[32] x[33] x[34] x[35] x[36] x[37]
 x[38] x[39] x[40] x[41] x[42] x[43] x[44] x[45] x[46] x[47] x[48] x[49]
 x[50] x[51] x[52] x[53] x[54] x[55] x[56] x[57] x[58] x[59] u[0] u[1] u[2]
 u[3] u[4] u[5] u[6] u[7] u[8] u[9] u[10] u[11] u[12] u[13] u[14] u[15]
 u[16] u[17] u[18] u[19] u[20] u[21] u[22] u[23] u[24] u[25] u[26] u[27]
 u[28] u[29] u[30] u[31] u[32] u[33] u[34] u[35] u[36] u[37] u[38] u[39]
 u[40] u[41] u[42] u[43] u[44] u[45] u[46] u[47] u[48] u[49] u[50] u[51]
 u[52] u[53] u[54] u[55] u[56] u[57] u[58] u[59] r[0] r[1] r[2] r[3] r[4]
 r[5] r[6] r[7] r[8] r[9] r[10] r[11] r[12] r[13] r[14] r[15] r[16] r[17]
 r[18] r[19] r[20] r[21] r[22] r[23] r[24] r[25] r[26] r[27] r[28] r[29]
 r[30] r[31] r[32] r[33] r[34] r[35] r[36] r[37] r[38] r[39] r[40] r[41]
 r[42] r[43] r[44] r[45] r[46] r[47] r[48] r[49] r[50] r[51] r[52] r[53]
 r[54] r[55] r[56] r[57] r[58] r[59]
End
